# Random Circle Problem
param d := 0.05; 
param n := 10; 
param radius := 2.00; 
param v0 := 
1 5.62
2 5.17
3 5.11
4 5.27
5 5.36
6 5.26
7 5.32
8 5.11
9 5.36
10 5.83
;
param cap := 
1 3.64912
2 4.14534
3 4.45174
4 4.75752
5 5.52613
6 0.30909
7 0.16933
8 0.79504
9 1.79430
10 2.36839
;
param x0 := 
1 2.00
2 1.62
3 0.62
4 -0.62
5 -1.62
6 -2.00
7 -1.62
8 -0.62
9 0.62
10 1.62
;
param y0 := 
1 -0.00
2 1.18
3 1.90
4 1.90
5 1.18
6 0.00
7 -1.18
8 -1.90
9 -1.90
10 -1.18
;
